NAME : amz2514.125219_125219.tour
COMMENT : Cost = 125219_125219
COMMENT : Found by LKH-AMZ [Keld Helsgaun] Sun May 11 15:15:54 2025
COMMENT : TW viol.: 0 #: 0
TYPE : TOUR
DIMENSION : 136
TOUR_SECTION
5
55
115
87
62
46
21
56
128
134
98
1
132
117
37
96
66
61
92
23
124
79
89
101
7
105
34
67
59
69
24
63
68
9
18
129
107
103
42
77
121
51
3
22
25
6
106
104
126
83
84
13
130
11
17
93
136
88
116
97
52
102
54
28
64
14
82
99
85
125
120
70
75
2
71
10
30
50
31
20
19
74
48
95
112
127
39
119
49
47
90
118
26
133
109
81
114
110
16
12
111
43
108
44
72
122
8
4
80
40
38
135
73
100
94
131
27
86
78
29
36
57
91
32
45
33
123
60
15
76
41
53
65
58
113
35
-1
EOF
